NAME: square
TYPE: VRP
COMMENT: Square
DIMENSION: 4
DEPOT: 1
NUMBER_OF_VEHICLES: 3
NUMBER_OF_OPERATORS: 1
SETUP_TIME: 10
DRONE_SPEED: 5
EDGE_WEIGHT_TYPE : EUC_2D
NODE_COORD_SECTION
1 0 0
2 0 100
3 100 100
4 100 0
MANDATORY_PATHS
1 3
EOF
